c preprocessed version of munin4-wpp, 55 vertices, 156 edges
p td 55 156
1 0
7 0
9 0
14 0
1 2
1 8
5 1
50 1
2 3
48 2
4 3
48 3
12 3
5 4
6 4
12 4
11 4
5 6
7 6
9 6
14 6
7 8
7 13
7 10
7 48
42 7
7 14
7 9
49 7
9 8
9 10
9 48
42 9
9 14
10 11
50 10
14 10
11 12
50 11
13 12
14 13
14 15
14 24
14 41
14 43
14 48
42 14
49 14
15 16
19 15
15 17
18 15
15 26
42 15
16 17
18 17
17 47
18 19
18 26
18 47
19 20
19 26
25 19
19 28
29 19
21 20
47 20
26 20
22 21
21 47
27 21
23 22
27 22
24 22
24 23
24 25
28 24
27 24
42 24
25 26
27 25
27 28
29 28
29 30
29 39
29 35
29 34
29 44
29 43
40 29
41 29
31 30
30 39
46 30
31 32
31 33
46 31
32 33
33 34
45 33
34 35
45 34
36 35
40 35
37 36
40 36
41 36
37 38
41 37
38 39
40 38
41 38
40 39
40 41
42 41
42 43
44 43
45 46
51 52
51 13
51 12
51 11
51 54
51 49
51 53
52 49
52 0
52 1
52 2
52 5
52 53
52 16
52 23
52 32
52 37
52 45
52 46
52 44
52 13
52 50
53 49
53 0
53 1
53 2
53 5
53 8
53 16
53 23
53 32
53 44
53 13
53 50
54 52
54 53
54 7
54 14
